c CNF file corresponding to a (partial) station packing problem.
p cnf 7036 229
1 2 3 4 5 6 7 8 9 10 11 12 13 14 0
-1 -2 0
-1 -3 0
-1 -4 0
-1 -5 0
-1 -6 0
-1 -7 0
-1 -8 0
-1 -9 0
-1 -10 0
-1 -11 0
-1 -12 0
-1 -13 0
-1 -14 0
-2 -3 0
-2 -4 0
-2 -5 0
-2 -6 0
-2 -7 0
-2 -8 0
-2 -9 0
-2 -10 0
-2 -11 0
-2 -12 0
-2 -13 0
-2 -14 0
-3 -4 0
-3 -5 0
-3 -6 0
-3 -7 0
-3 -8 0
-3 -9 0
-3 -10 0
-3 -11 0
-3 -12 0
-3 -13 0
-3 -14 0
-4 -5 0
-4 -6 0
-4 -7 0
-4 -8 0
-4 -9 0
-4 -10 0
-4 -11 0
-4 -12 0
-4 -13 0
-4 -14 0
-5 -6 0
-5 -7 0
-5 -8 0
-5 -9 0
-5 -10 0
-5 -11 0
-5 -12 0
-5 -13 0
-5 -14 0
-6 -7 0
-6 -8 0
-6 -9 0
-6 -10 0
-6 -11 0
-6 -12 0
-6 -13 0
-6 -14 0
-7 -8 0
-7 -9 0
-7 -10 0
-7 -11 0
-7 -12 0
-7 -13 0
-7 -14 0
-8 -9 0
-8 -10 0
-8 -11 0
-8 -12 0
-8 -13 0
-8 -14 0
-9 -10 0
-9 -11 0
-9 -12 0
-9 -13 0
-9 -14 0
-10 -11 0
-10 -12 0
-10 -13 0
-10 -14 0
-11 -12 0
-11 -13 0
-11 -14 0
-12 -13 0
-12 -14 0
-13 -14 0
7020 7021 7022 7023 7024 7025 7026 7027 7028 7029 7030 7031 7032 7033 7034 7035 7036 0
-7020 -7021 0
-7020 -7022 0
-7020 -7023 0
-7020 -7024 0
-7020 -7025 0
-7020 -7026 0
-7020 -7027 0
-7020 -7028 0
-7020 -7029 0
-7020 -7030 0
-7020 -7031 0
-7020 -7032 0
-7020 -7033 0
-7020 -7034 0
-7020 -7035 0
-7020 -7036 0
-7021 -7022 0
-7021 -7023 0
-7021 -7024 0
-7021 -7025 0
-7021 -7026 0
-7021 -7027 0
-7021 -7028 0
-7021 -7029 0
-7021 -7030 0
-7021 -7031 0
-7021 -7032 0
-7021 -7033 0
-7021 -7034 0
-7021 -7035 0
-7021 -7036 0
-7022 -7023 0
-7022 -7024 0
-7022 -7025 0
-7022 -7026 0
-7022 -7027 0
-7022 -7028 0
-7022 -7029 0
-7022 -7030 0
-7022 -7031 0
-7022 -7032 0
-7022 -7033 0
-7022 -7034 0
-7022 -7035 0
-7022 -7036 0
-7023 -7024 0
-7023 -7025 0
-7023 -7026 0
-7023 -7027 0
-7023 -7028 0
-7023 -7029 0
-7023 -7030 0
-7023 -7031 0
-7023 -7032 0
-7023 -7033 0
-7023 -7034 0
-7023 -7035 0
-7023 -7036 0
-7024 -7025 0
-7024 -7026 0
-7024 -7027 0
-7024 -7028 0
-7024 -7029 0
-7024 -7030 0
-7024 -7031 0
-7024 -7032 0
-7024 -7033 0
-7024 -7034 0
-7024 -7035 0
-7024 -7036 0
-7025 -7026 0
-7025 -7027 0
-7025 -7028 0
-7025 -7029 0
-7025 -7030 0
-7025 -7031 0
-7025 -7032 0
-7025 -7033 0
-7025 -7034 0
-7025 -7035 0
-7025 -7036 0
-7026 -7027 0
-7026 -7028 0
-7026 -7029 0
-7026 -7030 0
-7026 -7031 0
-7026 -7032 0
-7026 -7033 0
-7026 -7034 0
-7026 -7035 0
-7026 -7036 0
-7027 -7028 0
-7027 -7029 0
-7027 -7030 0
-7027 -7031 0
-7027 -7032 0
-7027 -7033 0
-7027 -7034 0
-7027 -7035 0
-7027 -7036 0
-7028 -7029 0
-7028 -7030 0
-7028 -7031 0
-7028 -7032 0
-7028 -7033 0
-7028 -7034 0
-7028 -7035 0
-7028 -7036 0
-7029 -7030 0
-7029 -7031 0
-7029 -7032 0
-7029 -7033 0
-7029 -7034 0
-7029 -7035 0
-7029 -7036 0
-7030 -7031 0
-7030 -7032 0
-7030 -7033 0
-7030 -7034 0
-7030 -7035 0
-7030 -7036 0
-7031 -7032 0
-7031 -7033 0
-7031 -7034 0
-7031 -7035 0
-7031 -7036 0
-7032 -7033 0
-7032 -7034 0
-7032 -7035 0
-7032 -7036 0
-7033 -7034 0
-7033 -7035 0
-7033 -7036 0
-7034 -7035 0
-7034 -7036 0
-7035 -7036 0
